c read Graph
c width = 31
c time = 34 ms
c width = 3
c time = 50 ms
c width = 3
c time = 4950 ms
s td 48 4 51
b 1 1 2 18
b 2 2 3 18 19
b 3 15 16 33 34
b 4 3 18 19 36
b 5 3 19 20 36
b 6 15 33 34 50
b 7 3 20 36 37
b 8 3 20 37 38
b 9 15 33 49 50
b 10 3 4 20 38
b 11 4 20 21 38
b 12 4 21 22 38
b 13 15 32 33 49
b 14 4 22 38 39
b 15 4 22 39 40
b 16 15 32 48 49
b 17 4 5 22 40
b 18 5 22 23 40
b 19 5 6 23 40
b 20 15 31 32 48
b 21 14 15 31 48
b 22 6 7 23 40
b 23 7 23 24 40
b 24 7 24 40 41
b 25 7 8 24 41
b 26 8 24 25 41
b 27 8 25 41 42
b 28 8 9 25 42
b 29 9 25 26 42
b 30 9 26 42 43
b 31 9 10 26 43
b 32 10 26 27 43
b 33 10 27 43 44
b 34 10 11 27 44
b 35 11 27 28 44
b 36 11 28 44 45
b 37 11 12 28 45
b 38 12 28 29 45
b 39 12 29 45 46
b 40 12 13 29 46
b 41 13 29 30 46
b 42 13 30 46 47
b 43 13 14 30 47
b 44 14 30 31 47
b 45 14 31 47 48
b 46 34 50 51
b 47 18 35 36
b 48 16 17 34
1 2
2 4
3 48
3 6
4 47
4 5
5 7
6 46
6 9
7 8
8 10
9 13
10 11
11 12
12 14
13 16
14 15
15 17
16 20
17 18
18 19
19 22
20 21
21 45
22 23
23 24
24 25
25 26
26 27
27 28
28 29
29 30
30 31
31 32
32 33
33 34
34 35
35 36
36 37
37 38
38 39
39 40
40 41
41 42
42 43
43 44
44 45
